solution status: optimal solution found
objective value:                                   19
x0_1                                                1 	(obj:0)
x1_5                                                1 	(obj:0)
x2_3                                                1 	(obj:0)
x3_2                                                1 	(obj:0)
x4_4                                                1 	(obj:0)
x5_6                                                1 	(obj:0)
quadobjvar                                         19 	(obj:1)
